n = 39;
lu = [|357, 852
      |-1391, 625
      |-517, -365
      |1088, 1201
      |-676, 1200
      |-996, -94
      |-386, 284
      |-1404, 639
      |-990, 1496
      |-1279, 1105
      |-694, 1016
      |365, 1375
      |-1304, -798
      |-239, 956
      |-1056, -496
      |-928, -190
      |580, 1267
      |-1122, 622
      |-1320, 147
      |-228, 1472
      |-591, -146
      |-891, 1500
      |-855, -251
      |-257, 610
      |-328, 1327
      |-874, 370
      |-659, 879
      |254, 494
      |-1258, 593
      |-822, 869
      |-682, 974
      |-1485, 876
      |-1159, 392
      |-279, 983
      |-1062, -739
      |-535, 368
      |-1115, 337
      |409, 1094
      |-163, 1025|];
